column=11;
row=11;
Board=[|10,0,6,3,0,9,1,0,4,0,8|0,0,11,0,7,0,0,8,0,0,1|2,0,0,0,11,5,0,4,0,0,0|7,0,1,0,10,2,3,0,6,5,0|0,4,0,10,0,8,0,0,0,0,9|0,0,0,0,8,0,0,10,0,0,0|0,10,8,2,0,0,0,6,0,0,0|0,0,2,0,0,3,4,1,0,0,0|0,0,0,0,0,0,0,0,0,0,0|1,0,5,7,0,0,0,0,0,0,0|6,0,0,0,0,4,0,0,0,0,0|];
horizontal=[|1,0,0,0,0,0,1,0,0,1|0,0,0,0,0,0,0,0,0,0|0,1,0,0,0,0,0,0,0,0|0,0,0,0,0,1,0,0,1,1|1,1,0,0,0,0,0,0,1,0|0,0,0,0,0,0,1,0,0,1|1,0,0,0,0,0,1,0,0,0|0,0,0,0,0,1,0,0,1,0|0,0,1,0,0,1,1,0,0,0|0,1,0,0,0,0,0,1,0,0|0,0,0,0,0,0,0,0,0,1|];
vertical=[|1,0,0,1,0,1,0,0,0,1,0|0,0,0,0,0,0,0,0,0,0,0|0,1,0,0,1,0,0,0,0,0,0|0,0,0,0,0,0,0,0,0,0,0|0,0,1,1,0,0,0,0,0,1,0|0,0,0,0,0,0,0,0,0,0,0|0,0,0,0,0,0,0,0,0,0,0|0,0,0,0,0,0,0,0,1,0,0|0,0,0,0,1,0,0,0,0,0,0|0,0,0,0,0,0,0,0,1,0,1|];
